Maximize
  - 3.6811494562108 edge_0_1_0_0 - 3.0062896392452 edge_0_2_0_0
   - 0.3367049191908 edge_0_3_0_0 - 2.065116787503 edge_0_4_0_0
   - 2.4403218642816 edge_0_5_0_0 - 1.8582988698416 edge_0_7_0_0
   - 2.4518475232312 edge_0_8_0_0 - 3.637041294535 edge_0_10_0_0
   - 3.8382999436278 edge_0_13_0_0 - 0.341275334323895 edge_1_2_0_0
   - 0.4130506651031965 edge_1_3_0_0 - 0.6933637042775287 edge_1_4_0_0
   - 0.2388650384229597 edge_1_5_0_0 - 0.9171967703547242 edge_1_7_0_0
   - 0.2492781685808712 edge_1_8_0_0 - 0.6813567563994135 edge_1_10_0_0
   - 0.3935809431626676 edge_1_11_0_0 - 1.33799952692965 edge_1_13_0_0
   - 0.6216017169446136 edge_1_14_0_0 - 0.557860657494173 edge_2_1_0_0
   + 1.0892796078592 edge_2_3_0_0 + 2.107129115005446 edge_2_4_0_0
   + 1.417638422381484 edge_2_5_0_0 + 1.276915950694092 edge_2_7_0_0
   + 1.123306494211117 edge_2_8_0_0 + 1.144000315571938 edge_2_10_0_0
   + 1.341202219273727 edge_2_11_0_0 + 1.214706380165346 edge_2_13_0_0
   + 1.273455372759901 edge_2_14_0_0 + 1.236166934529264 edge_3_1_0_0
   + 2.247459190914399 edge_3_2_0_0 + 2.7289698362618 edge_3_4_0_0
   + 1.3996626813882 edge_3_5_0_0 + 1.405776977490544 edge_3_7_0_0
   + 1.0515888841824 edge_3_8_0_0 + 0.7006273408925978 edge_3_10_0_0
   + 0.80780551008264 edge_3_11_0_0 + 0.8958182925399583 edge_3_13_0_0
   + 1.9569649793634 edge_3_14_0_0 + 0.0485709918455879 edge_4_1_0_0
   + 1.060479554598423 edge_4_2_0_0 + 1.9277398843356 edge_4_3_0_0
   + 2.361830792460844 edge_4_5_0_0 + 2.223835101532686 edge_4_7_0_0
   + 2.446985465888063 edge_4_8_0_0 + 1.627687933208918 edge_4_10_0_0
   + 2.237225404698568 edge_4_11_0_0 + 1.617635664725054 edge_4_13_0_0
   + 2.53523117694112 edge_4_14_0_0 - 0.9428074652187811 edge_5_1_0_0
   - 1.172670625476308 edge_5_2_0_0 - 0.8805320411370595 edge_5_3_0_0
   - 0.3114660777473297 edge_5_4_0_0 + 0.1550909776564323 edge_5_7_0_0
   - 0.0356380984124869 edge_5_8_0_0 - 0.0746799005802942 edge_5_10_0_0
   - 0.0524466067702083 edge_5_11_0_0 - 0.3173983676459234 edge_5_13_0_0
   - 0.0405886531649352 edge_5_14_0_0 - 0.3099724875220119 edge_7_1_0_0
   + 0.3440930812940261 edge_7_2_0_0 + 0.9850006186632 edge_7_3_0_0
   + 0.9119326756139762 edge_7_4_0_0 + 0.9508073516479462 edge_7_5_0_0
   + 1.93712672599402 edge_7_8_0_0 + 1.441473737316031 edge_7_10_0_0
   + 1.970495152790871 edge_7_11_0_0 + 0.9702320570437506 edge_7_13_0_0
   + 0.8910730337617505 edge_7_14_0_0 - 1.230705931139176 edge_8_1_0_0
   - 1.64510288390283 edge_8_2_0_0 - 0.8887118585167871 edge_8_4_0_0
   - 0.47845424873211 edge_8_5_0_0 - 0.3509304423433796 edge_8_7_0_0
   + 0.1081828369077397 edge_8_10_0_0 - 0.0412065848825961 edge_8_11_0_0
   - 0.1464022974262587 edge_8_13_0_0 - 0.0880910189069847 edge_8_14_0_0
   - 0.365384169108423 edge_10_1_0_0 + 0.0460906995541082 edge_10_2_0_0
   + 0.69205675255568 edge_10_3_0_0 + 0.4029951334815305 edge_10_4_0_0
   + 0.2027154744932081 edge_10_5_0_0 + 0.923055586612086 edge_10_7_0_0
   + 0.8985034417601381 edge_10_8_0_0 + 1.928734910689786 edge_10_11_0_0
   + 1.507264434707635 edge_10_13_0_0 + 1.113056581179844 edge_10_14_0_0
   - 1.4193188479258 edge_11_1_0_0 - 1.81127777904024 edge_11_2_0_0
   - 1.204734975267588 edge_11_4_0_0 - 0.7133240337394576 edge_11_5_0_0
   - 0.8985126867256021 edge_11_7_0_0 - 0.5504406171220257 edge_11_8_0_0
   - 0.2288369001537203 edge_11_10_0_0 + 0.1977057559240341 edge_11_13_0_0
   - 0.0689379934757822 edge_11_14_0_0 - 0.8349701871093733 edge_13_1_0_0
   + 0.0462755620984577 edge_13_2_0_0 + 0.5692985084340001 edge_13_3_0_0
   + 0.1252076644425797 edge_13_4_0_0 - 0.0260777235247744 edge_13_5_0_0
   + 0.4883226563727483 edge_13_7_0_0 + 0.2141680002857291 edge_13_8_0_0
   + 0.9713519458536342 edge_13_10_0_0 + 0.9773744573933126 edge_13_11_0_0
   + 1.369580388070082 edge_13_14_0_0 - 0.8173437188154066 edge_14_10_0_0
   - 0.8964332532497366 edge_14_11_0_0 - 0.4791799279162196 edge_14_13_0_0
Subject To
 one_parent_1: edge_0_1_0_0 + edge_2_1_0_0 + edge_3_1_0_0 + edge_4_1_0_0
   + edge_5_1_0_0 + edge_7_1_0_0 + edge_8_1_0_0 + edge_10_1_0_0
   + edge_11_1_0_0 + edge_13_1_0_0 = 1
 consume_one_flow_unit_1: flow_0_1_0_0 - flow_1_2_0_0 - flow_1_3_0_0
   - flow_1_4_0_0 - flow_1_5_0_0 - flow_1_7_0_0 - flow_1_8_0_0
   - flow_1_10_0_0 - flow_1_11_0_0 - flow_1_13_0_0 - flow_1_14_0_0
   + flow_2_1_0_0 + flow_3_1_0_0 + flow_4_1_0_0 + flow_5_1_0_0
   + flow_7_1_0_0 + flow_8_1_0_0 + flow_10_1_0_0 + flow_11_1_0_0
   + flow_13_1_0_0 = 1
 one_parent_2: edge_0_2_0_0 + edge_1_2_0_0 + edge_3_2_0_0 + edge_4_2_0_0
   + edge_5_2_0_0 + edge_7_2_0_0 + edge_8_2_0_0 + edge_10_2_0_0
   + edge_11_2_0_0 + edge_13_2_0_0 = 1
 consume_one_flow_unit_2: flow_0_2_0_0 + flow_1_2_0_0 - flow_2_1_0_0
   - flow_2_3_0_0 - flow_2_4_0_0 - flow_2_5_0_0 - flow_2_7_0_0
   - flow_2_8_0_0 - flow_2_10_0_0 - flow_2_11_0_0 - flow_2_13_0_0
   - flow_2_14_0_0 + flow_3_2_0_0 + flow_4_2_0_0 + flow_5_2_0_0
   + flow_7_2_0_0 + flow_8_2_0_0 + flow_10_2_0_0 + flow_11_2_0_0
   + flow_13_2_0_0 = 1
 one_parent_3: edge_0_3_0_0 + edge_1_3_0_0 + edge_2_3_0_0 + edge_4_3_0_0
   + edge_5_3_0_0 + edge_7_3_0_0 + edge_10_3_0_0 + edge_13_3_0_0 = 1
 consume_one_flow_unit_3: flow_0_3_0_0 + flow_1_3_0_0 + flow_2_3_0_0
   - flow_3_1_0_0 - flow_3_2_0_0 - flow_3_4_0_0 - flow_3_5_0_0
   - flow_3_7_0_0 - flow_3_8_0_0 - flow_3_10_0_0 - flow_3_11_0_0
   - flow_3_13_0_0 - flow_3_14_0_0 + flow_4_3_0_0 + flow_5_3_0_0
   + flow_7_3_0_0 + flow_10_3_0_0 + flow_13_3_0_0 = 1
 one_parent_4: edge_0_4_0_0 + edge_1_4_0_0 + edge_2_4_0_0 + edge_3_4_0_0
   + edge_5_4_0_0 + edge_7_4_0_0 + edge_8_4_0_0 + edge_10_4_0_0
   + edge_11_4_0_0 + edge_13_4_0_0 = 1
 consume_one_flow_unit_4: flow_0_4_0_0 + flow_1_4_0_0 + flow_2_4_0_0
   + flow_3_4_0_0 - flow_4_1_0_0 - flow_4_2_0_0 - flow_4_3_0_0
   - flow_4_5_0_0 - flow_4_7_0_0 - flow_4_8_0_0 - flow_4_10_0_0
   - flow_4_11_0_0 - flow_4_13_0_0 - flow_4_14_0_0 + flow_5_4_0_0
   + flow_7_4_0_0 + flow_8_4_0_0 + flow_10_4_0_0 + flow_11_4_0_0
   + flow_13_4_0_0 = 1
 one_parent_5: edge_0_5_0_0 + edge_1_5_0_0 + edge_2_5_0_0 + edge_3_5_0_0
   + edge_4_5_0_0 + edge_7_5_0_0 + edge_8_5_0_0 + edge_10_5_0_0
   + edge_11_5_0_0 + edge_13_5_0_0 = 1
 consume_one_flow_unit_5: flow_0_5_0_0 + flow_1_5_0_0 + flow_2_5_0_0
   + flow_3_5_0_0 + flow_4_5_0_0 - flow_5_1_0_0 - flow_5_2_0_0
   - flow_5_3_0_0 - flow_5_4_0_0 - flow_5_7_0_0 - flow_5_8_0_0
   - flow_5_10_0_0 - flow_5_11_0_0 - flow_5_13_0_0 - flow_5_14_0_0
   + flow_7_5_0_0 + flow_8_5_0_0 + flow_10_5_0_0 + flow_11_5_0_0
   + flow_13_5_0_0 = 1
 one_parent_6: = 1
 consume_one_flow_unit_6: = 1
 one_parent_7: edge_0_7_0_0 + edge_1_7_0_0 + edge_2_7_0_0 + edge_3_7_0_0
   + edge_4_7_0_0 + edge_5_7_0_0 + edge_8_7_0_0 + edge_10_7_0_0
   + edge_11_7_0_0 + edge_13_7_0_0 = 1
 consume_one_flow_unit_7: flow_0_7_0_0 + flow_1_7_0_0 + flow_2_7_0_0
   + flow_3_7_0_0 + flow_4_7_0_0 + flow_5_7_0_0 - flow_7_1_0_0
   - flow_7_2_0_0 - flow_7_3_0_0 - flow_7_4_0_0 - flow_7_5_0_0
   - flow_7_8_0_0 - flow_7_10_0_0 - flow_7_11_0_0 - flow_7_13_0_0
   - flow_7_14_0_0 + flow_8_7_0_0 + flow_10_7_0_0 + flow_11_7_0_0
   + flow_13_7_0_0 = 1
 one_parent_8: edge_0_8_0_0 + edge_1_8_0_0 + edge_2_8_0_0 + edge_3_8_0_0
   + edge_4_8_0_0 + edge_5_8_0_0 + edge_7_8_0_0 + edge_10_8_0_0
   + edge_11_8_0_0 + edge_13_8_0_0 = 1
 consume_one_flow_unit_8: flow_0_8_0_0 + flow_1_8_0_0 + flow_2_8_0_0
   + flow_3_8_0_0 + flow_4_8_0_0 + flow_5_8_0_0 + flow_7_8_0_0
   - flow_8_1_0_0 - flow_8_2_0_0 - flow_8_4_0_0 - flow_8_5_0_0
   - flow_8_7_0_0 - flow_8_10_0_0 - flow_8_11_0_0 - flow_8_13_0_0
   - flow_8_14_0_0 + flow_10_8_0_0 + flow_11_8_0_0 + flow_13_8_0_0 = 1
 one_parent_9: = 1
 consume_one_flow_unit_9: = 1
 one_parent_10: edge_0_10_0_0 + edge_1_10_0_0 + edge_2_10_0_0
   + edge_3_10_0_0 + edge_4_10_0_0 + edge_5_10_0_0 + edge_7_10_0_0
   + edge_8_10_0_0 + edge_11_10_0_0 + edge_13_10_0_0 + edge_14_10_0_0 = 1
 consume_one_flow_unit_10: flow_0_10_0_0 + flow_1_10_0_0 + flow_2_10_0_0
   + flow_3_10_0_0 + flow_4_10_0_0 + flow_5_10_0_0 + flow_7_10_0_0
   + flow_8_10_0_0 - flow_10_1_0_0 - flow_10_2_0_0 - flow_10_3_0_0
   - flow_10_4_0_0 - flow_10_5_0_0 - flow_10_7_0_0 - flow_10_8_0_0
   - flow_10_11_0_0 - flow_10_13_0_0 - flow_10_14_0_0 + flow_11_10_0_0
   + flow_13_10_0_0 + flow_14_10_0_0 = 1
 one_parent_11: edge_1_11_0_0 + edge_2_11_0_0 + edge_3_11_0_0
   + edge_4_11_0_0 + edge_5_11_0_0 + edge_7_11_0_0 + edge_8_11_0_0
   + edge_10_11_0_0 + edge_13_11_0_0 + edge_14_11_0_0 = 1
 consume_one_flow_unit_11: flow_1_11_0_0 + flow_2_11_0_0 + flow_3_11_0_0
   + flow_4_11_0_0 + flow_5_11_0_0 + flow_7_11_0_0 + flow_8_11_0_0
   + flow_10_11_0_0 - flow_11_1_0_0 - flow_11_2_0_0 - flow_11_4_0_0
   - flow_11_5_0_0 - flow_11_7_0_0 - flow_11_8_0_0 - flow_11_10_0_0
   - flow_11_13_0_0 - flow_11_14_0_0 + flow_13_11_0_0 + flow_14_11_0_0 = 1
 one_parent_12: = 1
 consume_one_flow_unit_12: = 1
 one_parent_13: edge_0_13_0_0 + edge_1_13_0_0 + edge_2_13_0_0
   + edge_3_13_0_0 + edge_4_13_0_0 + edge_5_13_0_0 + edge_7_13_0_0
   + edge_8_13_0_0 + edge_10_13_0_0 + edge_11_13_0_0 + edge_14_13_0_0 = 1
 consume_one_flow_unit_13: flow_0_13_0_0 + flow_1_13_0_0 + flow_2_13_0_0
   + flow_3_13_0_0 + flow_4_13_0_0 + flow_5_13_0_0 + flow_7_13_0_0
   + flow_8_13_0_0 + flow_10_13_0_0 + flow_11_13_0_0 - flow_13_1_0_0
   - flow_13_2_0_0 - flow_13_3_0_0 - flow_13_4_0_0 - flow_13_5_0_0
   - flow_13_7_0_0 - flow_13_8_0_0 - flow_13_10_0_0 - flow_13_11_0_0
   - flow_13_14_0_0 + flow_14_13_0_0 = 1
 one_parent_14: edge_1_14_0_0 + edge_2_14_0_0 + edge_3_14_0_0
   + edge_4_14_0_0 + edge_5_14_0_0 + edge_7_14_0_0 + edge_8_14_0_0
   + edge_10_14_0_0 + edge_11_14_0_0 + edge_13_14_0_0 = 1
 consume_one_flow_unit_14: flow_1_14_0_0 + flow_2_14_0_0 + flow_3_14_0_0
   + flow_4_14_0_0 + flow_5_14_0_0 + flow_7_14_0_0 + flow_8_14_0_0
   + flow_10_14_0_0 + flow_11_14_0_0 + flow_13_14_0_0 - flow_14_10_0_0
   - flow_14_11_0_0 - flow_14_13_0_0 = 1
 root_flow: flow_0_1_0_0 + flow_0_2_0_0 + flow_0_3_0_0 + flow_0_4_0_0
   + flow_0_5_0_0 + flow_0_7_0_0 + flow_0_8_0_0 + flow_0_10_0_0
   + flow_0_13_0_0 = 14
 inactive_no_flow_0_1_0_0: flow_0_1_0_0 - 1000 edge_0_1_0_0 <= 0
 inactive_no_flow_0_2_0_0: flow_0_2_0_0 - 1000 edge_0_2_0_0 <= 0
 inactive_no_flow_0_3_0_0: flow_0_3_0_0 - 1000 edge_0_3_0_0 <= 0
 inactive_no_flow_0_4_0_0: flow_0_4_0_0 - 1000 edge_0_4_0_0 <= 0
 inactive_no_flow_0_5_0_0: flow_0_5_0_0 - 1000 edge_0_5_0_0 <= 0
 inactive_no_flow_0_7_0_0: flow_0_7_0_0 - 1000 edge_0_7_0_0 <= 0
 inactive_no_flow_0_8_0_0: flow_0_8_0_0 - 1000 edge_0_8_0_0 <= 0
 inactive_no_flow_0_10_0_0: flow_0_10_0_0 - 1000 edge_0_10_0_0 <= 0
 inactive_no_flow_0_13_0_0: flow_0_13_0_0 - 1000 edge_0_13_0_0 <= 0
 inactive_no_flow_1_2_0_0: flow_1_2_0_0 - 1000 edge_1_2_0_0 <= 0
 inactive_no_flow_1_3_0_0: flow_1_3_0_0 - 1000 edge_1_3_0_0 <= 0
 inactive_no_flow_1_4_0_0: flow_1_4_0_0 - 1000 edge_1_4_0_0 <= 0
 inactive_no_flow_1_5_0_0: flow_1_5_0_0 - 1000 edge_1_5_0_0 <= 0
 inactive_no_flow_1_7_0_0: flow_1_7_0_0 - 1000 edge_1_7_0_0 <= 0
 inactive_no_flow_1_8_0_0: flow_1_8_0_0 - 1000 edge_1_8_0_0 <= 0
 inactive_no_flow_1_10_0_0: flow_1_10_0_0 - 1000 edge_1_10_0_0 <= 0
 inactive_no_flow_1_11_0_0: flow_1_11_0_0 - 1000 edge_1_11_0_0 <= 0
 inactive_no_flow_1_13_0_0: flow_1_13_0_0 - 1000 edge_1_13_0_0 <= 0
 inactive_no_flow_1_14_0_0: flow_1_14_0_0 - 1000 edge_1_14_0_0 <= 0
 inactive_no_flow_2_1_0_0: flow_2_1_0_0 - 1000 edge_2_1_0_0 <= 0
 inactive_no_flow_2_3_0_0: flow_2_3_0_0 - 1000 edge_2_3_0_0 <= 0
 inactive_no_flow_2_4_0_0: flow_2_4_0_0 - 1000 edge_2_4_0_0 <= 0
 inactive_no_flow_2_5_0_0: flow_2_5_0_0 - 1000 edge_2_5_0_0 <= 0
 inactive_no_flow_2_7_0_0: flow_2_7_0_0 - 1000 edge_2_7_0_0 <= 0
 inactive_no_flow_2_8_0_0: flow_2_8_0_0 - 1000 edge_2_8_0_0 <= 0
 inactive_no_flow_2_10_0_0: flow_2_10_0_0 - 1000 edge_2_10_0_0 <= 0
 inactive_no_flow_2_11_0_0: flow_2_11_0_0 - 1000 edge_2_11_0_0 <= 0
 inactive_no_flow_2_13_0_0: flow_2_13_0_0 - 1000 edge_2_13_0_0 <= 0
 inactive_no_flow_2_14_0_0: flow_2_14_0_0 - 1000 edge_2_14_0_0 <= 0
 inactive_no_flow_3_1_0_0: flow_3_1_0_0 - 1000 edge_3_1_0_0 <= 0
 inactive_no_flow_3_2_0_0: flow_3_2_0_0 - 1000 edge_3_2_0_0 <= 0
 inactive_no_flow_3_4_0_0: flow_3_4_0_0 - 1000 edge_3_4_0_0 <= 0
 inactive_no_flow_3_5_0_0: flow_3_5_0_0 - 1000 edge_3_5_0_0 <= 0
 inactive_no_flow_3_7_0_0: flow_3_7_0_0 - 1000 edge_3_7_0_0 <= 0
 inactive_no_flow_3_8_0_0: flow_3_8_0_0 - 1000 edge_3_8_0_0 <= 0
 inactive_no_flow_3_10_0_0: flow_3_10_0_0 - 1000 edge_3_10_0_0 <= 0
 inactive_no_flow_3_11_0_0: flow_3_11_0_0 - 1000 edge_3_11_0_0 <= 0
 inactive_no_flow_3_13_0_0: flow_3_13_0_0 - 1000 edge_3_13_0_0 <= 0
 inactive_no_flow_3_14_0_0: flow_3_14_0_0 - 1000 edge_3_14_0_0 <= 0
 inactive_no_flow_4_1_0_0: flow_4_1_0_0 - 1000 edge_4_1_0_0 <= 0
 inactive_no_flow_4_2_0_0: flow_4_2_0_0 - 1000 edge_4_2_0_0 <= 0
 inactive_no_flow_4_3_0_0: flow_4_3_0_0 - 1000 edge_4_3_0_0 <= 0
 inactive_no_flow_4_5_0_0: flow_4_5_0_0 - 1000 edge_4_5_0_0 <= 0
 inactive_no_flow_4_7_0_0: flow_4_7_0_0 - 1000 edge_4_7_0_0 <= 0
 inactive_no_flow_4_8_0_0: flow_4_8_0_0 - 1000 edge_4_8_0_0 <= 0
 inactive_no_flow_4_10_0_0: flow_4_10_0_0 - 1000 edge_4_10_0_0 <= 0
 inactive_no_flow_4_11_0_0: flow_4_11_0_0 - 1000 edge_4_11_0_0 <= 0
 inactive_no_flow_4_13_0_0: flow_4_13_0_0 - 1000 edge_4_13_0_0 <= 0
 inactive_no_flow_4_14_0_0: flow_4_14_0_0 - 1000 edge_4_14_0_0 <= 0
 inactive_no_flow_5_1_0_0: flow_5_1_0_0 - 1000 edge_5_1_0_0 <= 0
 inactive_no_flow_5_2_0_0: flow_5_2_0_0 - 1000 edge_5_2_0_0 <= 0
 inactive_no_flow_5_3_0_0: flow_5_3_0_0 - 1000 edge_5_3_0_0 <= 0
 inactive_no_flow_5_4_0_0: flow_5_4_0_0 - 1000 edge_5_4_0_0 <= 0
 inactive_no_flow_5_7_0_0: flow_5_7_0_0 - 1000 edge_5_7_0_0 <= 0
 inactive_no_flow_5_8_0_0: flow_5_8_0_0 - 1000 edge_5_8_0_0 <= 0
 inactive_no_flow_5_10_0_0: flow_5_10_0_0 - 1000 edge_5_10_0_0 <= 0
 inactive_no_flow_5_11_0_0: flow_5_11_0_0 - 1000 edge_5_11_0_0 <= 0
 inactive_no_flow_5_13_0_0: flow_5_13_0_0 - 1000 edge_5_13_0_0 <= 0
 inactive_no_flow_5_14_0_0: flow_5_14_0_0 - 1000 edge_5_14_0_0 <= 0
 inactive_no_flow_7_1_0_0: flow_7_1_0_0 - 1000 edge_7_1_0_0 <= 0
 inactive_no_flow_7_2_0_0: flow_7_2_0_0 - 1000 edge_7_2_0_0 <= 0
 inactive_no_flow_7_3_0_0: flow_7_3_0_0 - 1000 edge_7_3_0_0 <= 0
 inactive_no_flow_7_4_0_0: flow_7_4_0_0 - 1000 edge_7_4_0_0 <= 0
 inactive_no_flow_7_5_0_0: flow_7_5_0_0 - 1000 edge_7_5_0_0 <= 0
 inactive_no_flow_7_8_0_0: flow_7_8_0_0 - 1000 edge_7_8_0_0 <= 0
 inactive_no_flow_7_10_0_0: flow_7_10_0_0 - 1000 edge_7_10_0_0 <= 0
 inactive_no_flow_7_11_0_0: flow_7_11_0_0 - 1000 edge_7_11_0_0 <= 0
 inactive_no_flow_7_13_0_0: flow_7_13_0_0 - 1000 edge_7_13_0_0 <= 0
 inactive_no_flow_7_14_0_0: flow_7_14_0_0 - 1000 edge_7_14_0_0 <= 0
 inactive_no_flow_8_1_0_0: flow_8_1_0_0 - 1000 edge_8_1_0_0 <= 0
 inactive_no_flow_8_2_0_0: flow_8_2_0_0 - 1000 edge_8_2_0_0 <= 0
 inactive_no_flow_8_4_0_0: flow_8_4_0_0 - 1000 edge_8_4_0_0 <= 0
 inactive_no_flow_8_5_0_0: flow_8_5_0_0 - 1000 edge_8_5_0_0 <= 0
 inactive_no_flow_8_7_0_0: flow_8_7_0_0 - 1000 edge_8_7_0_0 <= 0
 inactive_no_flow_8_10_0_0: flow_8_10_0_0 - 1000 edge_8_10_0_0 <= 0
 inactive_no_flow_8_11_0_0: flow_8_11_0_0 - 1000 edge_8_11_0_0 <= 0
 inactive_no_flow_8_13_0_0: flow_8_13_0_0 - 1000 edge_8_13_0_0 <= 0
 inactive_no_flow_8_14_0_0: flow_8_14_0_0 - 1000 edge_8_14_0_0 <= 0
 inactive_no_flow_10_1_0_0: flow_10_1_0_0 - 1000 edge_10_1_0_0 <= 0
 inactive_no_flow_10_2_0_0: flow_10_2_0_0 - 1000 edge_10_2_0_0 <= 0
 inactive_no_flow_10_3_0_0: flow_10_3_0_0 - 1000 edge_10_3_0_0 <= 0
 inactive_no_flow_10_4_0_0: flow_10_4_0_0 - 1000 edge_10_4_0_0 <= 0
 inactive_no_flow_10_5_0_0: flow_10_5_0_0 - 1000 edge_10_5_0_0 <= 0
 inactive_no_flow_10_7_0_0: flow_10_7_0_0 - 1000 edge_10_7_0_0 <= 0
 inactive_no_flow_10_8_0_0: flow_10_8_0_0 - 1000 edge_10_8_0_0 <= 0
 inactive_no_flow_10_11_0_0: flow_10_11_0_0 - 1000 edge_10_11_0_0 <= 0
 inactive_no_flow_10_13_0_0: flow_10_13_0_0 - 1000 edge_10_13_0_0 <= 0
 inactive_no_flow_10_14_0_0: flow_10_14_0_0 - 1000 edge_10_14_0_0 <= 0
 inactive_no_flow_11_1_0_0: flow_11_1_0_0 - 1000 edge_11_1_0_0 <= 0
 inactive_no_flow_11_2_0_0: flow_11_2_0_0 - 1000 edge_11_2_0_0 <= 0
 inactive_no_flow_11_4_0_0: flow_11_4_0_0 - 1000 edge_11_4_0_0 <= 0
 inactive_no_flow_11_5_0_0: flow_11_5_0_0 - 1000 edge_11_5_0_0 <= 0
 inactive_no_flow_11_7_0_0: flow_11_7_0_0 - 1000 edge_11_7_0_0 <= 0
 inactive_no_flow_11_8_0_0: flow_11_8_0_0 - 1000 edge_11_8_0_0 <= 0
 inactive_no_flow_11_10_0_0: flow_11_10_0_0 - 1000 edge_11_10_0_0 <= 0
 inactive_no_flow_11_13_0_0: flow_11_13_0_0 - 1000 edge_11_13_0_0 <= 0
 inactive_no_flow_11_14_0_0: flow_11_14_0_0 - 1000 edge_11_14_0_0 <= 0
 inactive_no_flow_13_1_0_0: flow_13_1_0_0 - 1000 edge_13_1_0_0 <= 0
 inactive_no_flow_13_2_0_0: flow_13_2_0_0 - 1000 edge_13_2_0_0 <= 0
 inactive_no_flow_13_3_0_0: flow_13_3_0_0 - 1000 edge_13_3_0_0 <= 0
 inactive_no_flow_13_4_0_0: flow_13_4_0_0 - 1000 edge_13_4_0_0 <= 0
 inactive_no_flow_13_5_0_0: flow_13_5_0_0 - 1000 edge_13_5_0_0 <= 0
 inactive_no_flow_13_7_0_0: flow_13_7_0_0 - 1000 edge_13_7_0_0 <= 0
 inactive_no_flow_13_8_0_0: flow_13_8_0_0 - 1000 edge_13_8_0_0 <= 0
 inactive_no_flow_13_10_0_0: flow_13_10_0_0 - 1000 edge_13_10_0_0 <= 0
 inactive_no_flow_13_11_0_0: flow_13_11_0_0 - 1000 edge_13_11_0_0 <= 0
 inactive_no_flow_13_14_0_0: flow_13_14_0_0 - 1000 edge_13_14_0_0 <= 0
 inactive_no_flow_14_10_0_0: flow_14_10_0_0 - 1000 edge_14_10_0_0 <= 0
 inactive_no_flow_14_11_0_0: flow_14_11_0_0 - 1000 edge_14_11_0_0 <= 0
 inactive_no_flow_14_13_0_0: flow_14_13_0_0 - 1000 edge_14_13_0_0 <= 0
Bounds
Binaries
 edge_0_1_0_0 edge_0_2_0_0 edge_0_3_0_0 edge_0_4_0_0 edge_0_5_0_0
 edge_0_7_0_0 edge_0_8_0_0 edge_0_10_0_0 edge_0_13_0_0 edge_1_2_0_0
 edge_1_3_0_0 edge_1_4_0_0 edge_1_5_0_0 edge_1_7_0_0 edge_1_8_0_0
 edge_1_10_0_0 edge_1_11_0_0 edge_1_13_0_0 edge_1_14_0_0 edge_2_1_0_0
 edge_2_3_0_0 edge_2_4_0_0 edge_2_5_0_0 edge_2_7_0_0 edge_2_8_0_0
 edge_2_10_0_0 edge_2_11_0_0 edge_2_13_0_0 edge_2_14_0_0 edge_3_1_0_0
 edge_3_2_0_0 edge_3_4_0_0 edge_3_5_0_0 edge_3_7_0_0 edge_3_8_0_0
 edge_3_10_0_0 edge_3_11_0_0 edge_3_13_0_0 edge_3_14_0_0 edge_4_1_0_0
 edge_4_2_0_0 edge_4_3_0_0 edge_4_5_0_0 edge_4_7_0_0 edge_4_8_0_0
 edge_4_10_0_0 edge_4_11_0_0 edge_4_13_0_0 edge_4_14_0_0 edge_5_1_0_0
 edge_5_2_0_0 edge_5_3_0_0 edge_5_4_0_0 edge_5_7_0_0 edge_5_8_0_0
 edge_5_10_0_0 edge_5_11_0_0 edge_5_13_0_0 edge_5_14_0_0 edge_7_1_0_0
 edge_7_2_0_0 edge_7_3_0_0 edge_7_4_0_0 edge_7_5_0_0 edge_7_8_0_0
 edge_7_10_0_0 edge_7_11_0_0 edge_7_13_0_0 edge_7_14_0_0 edge_8_1_0_0
 edge_8_2_0_0 edge_8_4_0_0 edge_8_5_0_0 edge_8_7_0_0 edge_8_10_0_0
 edge_8_11_0_0 edge_8_13_0_0 edge_8_14_0_0 edge_10_1_0_0 edge_10_2_0_0
 edge_10_3_0_0 edge_10_4_0_0 edge_10_5_0_0 edge_10_7_0_0 edge_10_8_0_0
 edge_10_11_0_0 edge_10_13_0_0 edge_10_14_0_0 edge_11_1_0_0 edge_11_2_0_0
 edge_11_4_0_0 edge_11_5_0_0 edge_11_7_0_0 edge_11_8_0_0 edge_11_10_0_0
 edge_11_13_0_0 edge_11_14_0_0 edge_13_1_0_0 edge_13_2_0_0 edge_13_3_0_0
 edge_13_4_0_0 edge_13_5_0_0 edge_13_7_0_0 edge_13_8_0_0 edge_13_10_0_0
 edge_13_11_0_0 edge_13_14_0_0 edge_14_10_0_0 edge_14_11_0_0 edge_14_13_0_0
End
